from OUTCAR_example_1, but removing species
 1.0000000000000000
    17.9343499999999985    0.0000000000000000    0.0000000000000000
     0.0000000000000000   17.9343499999999985    0.0000000000000000
     0.0000000000000000    0.0000000000000000   17.9343499999999985
  18
Cartesian
  0.0000000000000000  0.0000000000000000  0.0000000000000000
 16.8215199999999996 15.7196300000000004 17.6689499999999988
  0.3892300000000000  0.0195000000000000 15.5347100000000005
 16.7979799999999990 15.7855600000000003 15.1218400000000006
 15.8288600000000006  0.1312800000000000 16.6206700000000005
  0.9646700000000000 15.6925000000000008 16.9140900000000016
  2.2704800000000001  0.0633500000000000 16.5629199999999983
 16.3836000000000013  1.9928800000000000  0.0423800000000000
  0.8269100000000000  2.0872000000000002 16.8188999999999993
 16.5645300000000013  1.7942199999999999 15.3298100000000002
 15.6910299999999996 17.8037099999999988  1.3030100000000000
  2.2413099999999999 17.9060200000000016  1.2370300000000001
  2.9509699999999999  2.2455900000000000 17.9213600000000000
  0.0549600000000000  0.1681100000000000  2.2897300000000000
 16.6767499999999984 16.1307499999999990  2.2747400000000000
  1.1628300000000000 15.8576499999999996  1.2932399999999999
 16.2792400000000015  2.1151100000000000  2.7030699999999999
  0.7651500000000000  2.1591600000000000  1.3055300000000001
